networks/zoo_50_480/standard/zoo_50_480.sol
<?xml version = "1.0" encoding="UTF-8" standalone="yes"?>
<CPLEXSolution version="1.2">
 <header
   problemName="networks/zoo_50_480/zoo_50_480.lp"
   solutionName="incumbent"
   solutionIndex="-1"
   objectiveValue="25"
   solutionTypeValue="3"
   solutionTypeString="primal"
   solutionStatusValue="101"
   solutionStatusString="integer optimal solution"
   solutionMethodString="mip"
   primalFeasible="1"
   dualFeasible="1"
   MIPNodes="0"
   MIPIterations="3185"
   writeLevel="3"/>
 <quality
   epInt="1.0000000000000001e-05"
   epRHS="9.9999999999999995e-07"
   maxIntInfeas="3.000000248221113e-09"
   maxPrimalInfeas="1.8000001489326678e-08"
   maxX="4"
   maxSlack="10"/>
 <variables>
  <variable name="Y(3,5)" index="102" value="1"/>
  <variable name="Y(9,14)" index="405" value="1"/>
  <variable name="Y(13,18)" index="605" value="1"/>
  <variable name="Y(15,20)" index="705" value="1"/>
  <variable name="Y(28,10)" index="1332" value="1"/>
  <variable name="Y(29,11)" index="1382" value="1"/>
  <variable name="Y(30,12)" index="1432" value="1"/>
  <variable name="Y(73,8)" index="3535" value="1"/>
  <variable name="Y(79,16)" index="3837" value="1"/>
  <variable name="Y(87,24)" index="4237" value="1"/>
  <variable name="Y(130,21)" index="6341" value="1"/>
  <variable name="Y(201,6)" index="9805" value="1"/>
  <variable name="Y(220,1)" index="10731" value="1"/>
  <variable name="Y(228,15)" index="11137" value="1"/>
  <variable name="Y(244,7)" index="11913" value="1"/>
  <variable name="Y(261,2)" index="12741" value="1"/>
  <variable name="Y(264,9)" index="12895" value="1"/>
  <variable name="Y(299,13)" index="14614" value="1"/>
  <variable name="Y(325,25)" index="15900" value="1"/>
  <variable name="Y(342,19)" index="16727" value="1"/>
  <variable name="Y(365,22)" index="17857" value="1"/>
  <variable name="Y(408,23)" index="19965" value="1"/>
  <variable name="Y(419,4)" index="20485" value="1"/>
  <variable name="Y(462,17)" index="22605" value="1"/>
  <variable name="Y(465,1)" index="22736" value="1"/>
  <variable name="X(1,2,73)" index="23592" value="1"/>
  <variable name="X(1,3,130)" index="24129" value="1"/>
  <variable name="X(1,4,220)" index="24699" value="1"/>
  <variable name="X(1,26,465)" index="25424" value="1"/>
  <variable name="X(2,1,149)" index="25588" value="-3.000000248221113e-09"/>
  <variable name="X(2,1,220)" index="25659" value="1.0000000030000002"/>
  <variable name="X(2,7,3)" index="25922" value="1"/>
  <variable name="X(2,8,73)" index="26472" value="1"/>
  <variable name="X(2,27,261)" index="27140" value="1"/>
  <variable name="X(3,1,465)" index="27824" value="1"/>
  <variable name="X(3,4,419)" index="28258" value="1"/>
  <variable name="X(3,17,87)" index="28406" value="1"/>
  <variable name="X(3,23,130)" index="28929" value="1"/>
  <variable name="X(4,1,73)" index="29352" value="1"/>
  <variable name="X(4,3,87)" index="29846" value="1"/>
  <variable name="X(4,29,419)" index="30658" value="1"/>
  <variable name="X(5,6,9)" index="30728" value="1"/>
  <variable name="X(5,7,244)" index="31443" value="1"/>
  <variable name="X(5,30,3)" index="31682" value="1"/>
  <variable name="X(6,5,244)" index="32403" value="1"/>
  <variable name="X(6,9,264)" index="32903" value="1"/>
  <variable name="X(6,12,30)" index="33149" value="1"/>
  <variable name="X(6,13,299)" index="33898" value="1"/>
  <variable name="X(6,14,9)" index="34088" value="1"/>
  <variable name="X(6,31,201)" index="34760" value="1"/>
  <variable name="X(7,2,261)" index="35300" value="1"/>
  <variable name="X(7,5,3)" index="35522" value="1"/>
  <variable name="X(7,32,244)" index="36243" value="1"/>
  <variable name="X(8,2,220)" index="36699" value="1"/>
  <variable name="X(8,9,29)" index="36988" value="1"/>
  <variable name="X(8,33,73)" index="37512" value="1"/>
  <variable name="X(9,6,299)" index="38218" value="1"/>
  <variable name="X(9,8,220)" index="38619" value="1"/>
  <variable name="X(9,11,29)" index="38908" value="1"/>
  <variable name="X(9,15,228)" index="39587" value="1"/>
  <variable name="X(9,34,264)" index="40103" value="1"/>
  <variable name="X(10,14,201)" index="40520" value="1"/>
  <variable name="X(10,35,28)" index="40827" value="1"/>
  <variable name="X(11,9,228)" index="41507" value="1"/>
  <variable name="X(11,36,29)" index="41788" value="1"/>
  <variable name="X(12,6,244)" index="42483" value="1"/>
  <variable name="X(12,37,30)" index="42749" value="1"/>
  <variable name="X(13,6,264)" index="43463" value="1"/>
  <variable name="X(13,38,299)" index="43978" value="1"/>
  <variable name="X(14,6,201)" index="44360" value="1"/>
  <variable name="X(14,10,28)" index="44667" value="1"/>
  <variable name="X(14,39,9)" index="45128" value="1"/>
  <variable name="X(15,9,299)" index="45898" value="1"/>
  <variable name="X(15,40,228)" index="46307" value="1"/>
  <variable name="X(16,23,325)" index="46884" value="1"/>
  <variable name="X(16,41,79)" index="47118" value="1"/>
  <variable name="X(17,3,419)" index="47938" value="1"/>
  <variable name="X(17,22,87)" index="48086" value="1"/>
  <variable name="X(17,42,462)" index="48941" value="1"/>
  <variable name="X(18,19,365)" index="49324" value="1"/>
  <variable name="X(18,43,13)" index="49452" value="1"/>
  <variable name="X(19,18,13)" index="49932" value="1"/>
  <variable name="X(19,20,365)" index="50764" value="1"/>
  <variable name="X(19,21,408)" index="51287" value="1"/>
  <variable name="X(19,44,342)" index="51701" value="1"/>
  <variable name="X(20,19,342)" index="52181" value="1"/>
  <variable name="X(20,22,365)" index="52684" value="1"/>
  <variable name="X(20,45,15)" index="52814" value="1"/>
  <variable name="X(21,19,13)" index="53292" value="1"/>
  <variable name="X(21,23,408)" index="54167" value="1"/>
  <variable name="X(21,46,130)" index="54369" value="1"/>
  <variable name="X(22,17,462)" index="55181" value="1"/>
  <variable name="X(22,20,15)" index="55214" value="1"/>
  <variable name="X(22,24,87)" index="55766" value="1"/>
  <variable name="X(22,47,365)" index="56524" value="1"/>
  <variable name="X(23,3,465)" index="57104" value="1"/>
  <variable name="X(23,16,79)" index="57198" value="1"/>
  <variable name="X(23,21,130)" index="57729" value="1"/>
  <variable name="X(23,25,325)" index="58404" value="1"/>
  <variable name="X(23,48,408)" index="58967" value="1"/>
  <variable name="X(24,22,462)" index="59501" value="1"/>
  <variable name="X(24,49,87)" index="59606" value="1"/>
  <variable name="X(25,23,465)" index="60464" value="1"/>
  <variable name="X(25,50,325)" index="60804" value="1"/>
  <variable name="C(3,7)" index="60966" value="1"/>
  <variable name="C(3,5)" index="60967" value="2"/>
  <variable name="C(9,6)" index="60993" value="1"/>
  <variable name="C(9,14)" index="60994" value="2"/>
  <variable name="C(13,19)" index="61011" value="1"/>
  <variable name="C(13,18)" index="61012" value="2"/>
  <variable name="C(15,20)" index="61022" value="1.0000000010000001"/>
  <variable name="C(28,10)" index="61067" value="1"/>
  <variable name="C(29,9)" index="61070" value="1"/>
  <variable name="C(29,11)" index="61071" value="2"/>
  <variable name="C(30,12)" index="61076" value="1"/>
  <variable name="C(73,1)" index="61270" value="1"/>
  <variable name="C(73,2)" index="61271" value="2"/>
  <variable name="C(73,8)" index="61272" value="3"/>
  <variable name="C(79,16)" index="61307" value="1"/>
  <variable name="C(87,3)" index="61339" value="1"/>
  <variable name="C(87,17)" index="61340" value="2"/>
  <variable name="C(87,22)" index="61341" value="3"/>
  <variable name="C(87,24)" index="61342" value="4"/>
  <variable name="C(130,3)" index="61552" value="1"/>
  <variable name="C(130,23)" index="61553" value="2"/>
  <variable name="C(130,21)" index="61554" value="3"/>
  <variable name="C(201,10)" index="61911" value="-9.9999997171806854e-10"/>
  <variable name="C(201,14)" index="61912" value="0.99999999900000003"/>
  <variable name="C(201,6)" index="61913" value="1.9999999989999999"/>
  <variable name="C(220,8)" index="62053" value="1"/>
  <variable name="C(220,2)" index="62054" value="2"/>
  <variable name="C(220,1)" index="62055" value="3.0000000030000002"/>
  <variable name="C(228,9)" index="62083" value="1"/>
  <variable name="C(228,15)" index="62084" value="2"/>
  <variable name="C(244,6)" index="62192" value="1"/>
  <variable name="C(244,5)" index="62193" value="2"/>
  <variable name="C(244,7)" index="62194" value="3"/>
  <variable name="C(261,2)" index="62315" value="1"/>
  <variable name="C(264,6)" index="62323" value="1"/>
  <variable name="C(264,9)" index="62324" value="2"/>
  <variable name="C(299,9)" index="62546" value="1"/>
  <variable name="C(299,6)" index="62547" value="2"/>
  <variable name="C(299,13)" index="62548" value="3"/>
  <variable name="C(325,23)" index="62706" value="1"/>
  <variable name="C(325,25)" index="62707" value="2"/>
  <variable name="C(342,19)" index="62806" value="1"/>
  <variable name="C(365,19)" index="62940" value="1"/>
  <variable name="C(365,20)" index="62941" value="2"/>
  <variable name="C(365,22)" index="62942" value="3"/>
  <variable name="C(408,21)" index="63192" value="1"/>
  <variable name="C(408,23)" index="63193" value="2"/>
  <variable name="C(419,3)" index="63241" value="1"/>
  <variable name="C(419,4)" index="63242" value="2.0000000020000002"/>
  <variable name="C(462,22)" index="63465" value="1"/>
  <variable name="C(462,17)" index="63466" value="2"/>
  <variable name="C(465,23)" index="63477" value="1"/>
  <variable name="C(465,3)" index="63478" value="2"/>
  <variable name="C(465,1)" index="63479" value="3"/>
 </variables>
</CPLEXSolution>
